
;this file is automatically generated: Mon Feb 10 17:01:40 CST 2020

;declarations generated

(declare-fun obj_3a38c43f_d2cb_4846_93b3_fee9d6112529 ( Int) Int)
(declare-fun oclExcludes ( Int Int) Bool)
(declare-fun Cardinality ( Int) Int)
(declare-fun type_420022f8_8cb5_42d8_9b2b_8f49b53827a9_Class37 ( Int) Bool)
(declare-fun oclSelect ( Int Bool) Int)
(declare-fun class37_Class37IntAttr4 ( Int) Int)
(declare-fun class37_Class37IntAttr3 ( Int) Int)
(declare-fun class37_Class37IntAttr2 ( Int) Int)
(declare-fun Enum0 ( Int) Int)
(declare-fun Enum1 ( Int) Int)
(declare-fun Enum2 ( Int) Int)
(declare-fun container_ ( Int) Int)
(declare-fun oclIncludes ( Int Int) Bool)
(declare-fun ObjAt ( Int Int) Int)

;formula(s) generated
(assert (! (forall ((c7_2 Int)(c7_1 Int)) (=> (and ( type_420022f8_8cb5_42d8_9b2b_8f49b53827a9_Class37 c7_1 )  ( type_420022f8_8cb5_42d8_9b2b_8f49b53827a9_Class37 c7_2 ) ) (or (> ( class37_Class37IntAttr4 ( obj_3a38c43f_d2cb_4846_93b3_fee9d6112529 c7_1 )  )  ( class37_Class37IntAttr2 ( obj_3a38c43f_d2cb_4846_93b3_fee9d6112529 c7_2 )  ) ) (and (forall ((v Int)) (=> ( type_420022f8_8cb5_42d8_9b2b_8f49b53827a9_Class37 v )  (>= ( class37_Class37IntAttr3 ( obj_3a38c43f_d2cb_4846_93b3_fee9d6112529 v )  )  14))) (forall ((v Int)) (=> ( type_420022f8_8cb5_42d8_9b2b_8f49b53827a9_Class37 v )  (<= ( class37_Class37IntAttr2 ( obj_3a38c43f_d2cb_4846_93b3_fee9d6112529 v )  )  2))))))):named l0))
(assert (! (forall ((v Int)) (=> ( type_420022f8_8cb5_42d8_9b2b_8f49b53827a9_Class37 v )  (< ( class37_Class37IntAttr4 ( obj_3a38c43f_d2cb_4846_93b3_fee9d6112529 v )  )  1))):named l1))
(assert (exists ((o Int)) ( type_420022f8_8cb5_42d8_9b2b_8f49b53827a9_Class37 ( obj_3a38c43f_d2cb_4846_93b3_fee9d6112529 o )  ) ))

 ;end of formula 